c 3 - XORSAT
p cnf 20 80
11 12 15 0
-11 -12 15 0
-11 12 -15 0
11 -12 -15 0
-6 -18 -19 0
-6 18 19 0
6 -18 19 0
6 18 -19 0
-1 -2 -10 0
-1 2 10 0
1 -2 10 0
1 2 -10 0
1 3 16 0
-1 -3 16 0
-1 3 -16 0
1 -3 -16 0
1 3 4 0
-1 -3 4 0
-1 3 -4 0
1 -3 -4 0
13 20 10 0
-13 -20 10 0
-13 20 -10 0
13 -20 -10 0
-2 -12 -14 0
-2 12 14 0
2 -12 14 0
2 12 -14 0
-3 -4 -13 0
-3 4 13 0
3 -4 13 0
3 4 -13 0
7 9 10 0
-7 -9 10 0
-7 9 -10 0
7 -9 -10 0
-5 -12 -16 0
-5 12 16 0
5 -12 16 0
5 12 -16 0
9 11 17 0
-9 -11 17 0
-9 11 -17 0
9 -11 -17 0
-14 -15 -19 0
-14 15 19 0
14 -15 19 0
14 15 -19 0
-6 -18 -19 0
-6 18 19 0
6 -18 19 0
6 18 -19 0
-4 -6 -15 0
-4 6 15 0
4 -6 15 0
4 6 -15 0
5 16 17 0
-5 -16 17 0
-5 16 -17 0
5 -16 -17 0
-7 -8 -14 0
-7 8 14 0
7 -8 14 0
7 8 -14 0
8 13 17 0
-8 -13 17 0
-8 13 -17 0
8 -13 -17 0
-7 -11 -18 0
-7 11 18 0
7 -11 18 0
7 11 -18 0
-5 -8 -20 0
-5 8 20 0
5 -8 20 0
5 8 -20 0
-2 -9 -20 0
-2 9 20 0
2 -9 20 0
2 9 -20 0
